WARNING: for repeatability, setting FPU to use double precision
============================[ Problem Statistics ]=============================
|                                                                             |
|  Number of variables:            32                                         |
|  Number of clauses:             120                                         |
|  Parse time:                   0.00 s                                       |
|                                                                             |
============================[ Search Statistics ]==============================
| Conflicts |          ORIGINAL         |          LEARNT          | Progress |
|           |    Vars  Clauses Literals |    Limit  Clauses Lit/Cl |          |
===============================================================================
===============================================================================
restarts              : 1
conflicts             : 30             (10373 /sec)
decisions             : 41             (0.00 % random) (14177 /sec)
propagations          : 464            (160443 /sec)
conflict literals     : 107            (13.01 % deleted)
Memory used           : 11.00 MB
CPU time              : 0.002892 s

UNSATISFIABLE
